c This Formular is generated by mcnf
c
c    horn? no
c    forced? no
c    mixed sat? no
c    clause length = 3
c
p cnf 20  91
9 10 11 15 -2 0
-2 -9 -3 -15 0
-12 -4 -15 0
6 14 -17 0
10 16 11 0
-9 0
-10 0
-11 0
15 0
3 0
-15 20 -7 0
-1 10 16 0
13 17 -7 0
-2 -14 -13 0
13 -6 15 0
-9 3 16 0
-20 -13 4 0
-7 15 -14 0
-15 -16 6 0
5 -18 20 0
-16 -19 7 0
20 -18 -2 0
10 -19 -14 0
16 -7 12 0
